words_hard_train/2137.qaiger
aag 81 13 0 1 68
2
4
8
12
14
20
24
34
48
60
62
66
70
162
6 2 4
10 8 4
16 13 15
18 17 4
22 19 21
26 22 25
28 27 4
30 11 29
32 7 30
36 33 35
38 32 34
40 37 39
42 31 2
44 30 3
46 43 45
50 47 48
52 41 51
54 29 9
56 28 8
58 55 57
64 61 63
68 64 67
72 68 71
74 59 73
76 23 4
78 77 24
80 76 25
82 79 81
84 69 70
86 85 73
88 82 87
90 75 89
92 12 4
94 92 14
96 93 15
98 95 97
100 60 62
102 101 65
104 98 102
106 60 12
108 105 107
110 18 20
112 111 23
114 65 66
116 115 69
118 113 117
120 109 119
122 99 103
124 120 123
126 112 116
128 125 127
130 83 86
132 128 131
134 90 133
136 58 72
138 135 137
140 46 49
142 138 141
144 52 143
146 74 122
148 107 88
150 148 118
152 146 150
154 152 50
156 44 4
158 155 157
160 40 159
162 145 161
i0 2 y1[5]
i1 2 y1[7]
i2 2 y1[4]
i3 2 y1[0]
i4 2 y1[1]
i5 2 y1[2]
i6 2 y1[3]
i7 2 y1[6]
i8 1 x1[5]
i9 1 x1[0]
i10 1 x1[1]
i11 1 x1[2]
i12 1 x1[3]
o0 bv[0]
c
simplified
  <
    1
    subtract
      abs
        2 y1
      or
        208
        1 x1
