words_hard_train/2137.qaiger.qdimacs
p cnf 81 205
a 33 35 24 30 31 0
e 1 2 3 4 5 6 7 8 9 10 11 12 13 14 15 16 17 18 19 20 21 22 23 25 26 27 28 29 32 34 36 37 38 39 40 41 42 43 44 45 46 47 48 49 50 51 52 53 54 55 56 57 58 59 60 61 62 63 64 65 66 67 68 69 70 71 72 73 74 75 76 77 78 79 80 81 0
-1 -2 3 0
1 -3 0
2 -3 0
-4 -2 5 0
4 -5 0
2 -5 0
6 7 8 0
-6 -8 0
-7 -8 0
8 -2 9 0
-8 -9 0
2 -9 0
9 10 11 0
-9 -11 0
-10 -11 0
-11 12 13 0
11 -13 0
-12 -13 0
13 -2 14 0
-13 -14 0
2 -14 0
5 14 15 0
-5 -15 0
-14 -15 0
3 -15 16 0
-3 -16 0
15 -16 0
16 17 18 0
-16 -18 0
-17 -18 0
-16 -17 19 0
16 -19 0
17 -19 0
18 19 20 0
-18 -20 0
-19 -20 0
15 -1 21 0
-15 -21 0
1 -21 0
-15 1 22 0
15 -22 0
-1 -22 0
21 22 23 0
-21 -23 0
-22 -23 0
23 -24 25 0
-23 -25 0
24 -25 0
20 25 26 0
-20 -26 0
-25 -26 0
14 4 27 0
-14 -27 0
-4 -27 0
-14 -4 28 0
14 -28 0
4 -28 0
27 28 29 0
-27 -29 0
-28 -29 0
30 31 32 0
-30 -32 0
-31 -32 0
-32 33 34 0
32 -34 0
-33 -34 0
-34 35 36 0
34 -36 0
-35 -36 0
29 36 37 0
-29 -37 0
-36 -37 0
11 -2 38 0
-11 -38 0
2 -38 0
38 -12 39 0
-38 -39 0
12 -39 0
-38 12 40 0
38 -40 0
-12 -40 0
39 40 41 0
-39 -41 0
-40 -41 0
34 -35 42 0
-34 -42 0
35 -42 0
42 36 43 0
-42 -43 0
-36 -43 0
-41 43 44 0
41 -44 0
-43 -44 0
37 44 45 0
-37 -45 0
-44 -45 0
-6 -2 46 0
6 -46 0
2 -46 0
-46 -7 47 0
46 -47 0
7 -47 0
46 7 48 0
-46 -48 0
-7 -48 0
47 48 49 0
-47 -49 0
-48 -49 0
-30 -31 50 0
30 -50 0
31 -50 0
50 32 51 0
-50 -51 0
-32 -51 0
-49 -51 52 0
49 -52 0
51 -52 0
-30 -6 53 0
30 -53 0
6 -53 0
52 53 54 0
-52 -54 0
-53 -54 0
-9 -10 55 0
9 -55 0
10 -55 0
55 11 56 0
-55 -56 0
-11 -56 0
32 -33 57 0
-32 -57 0
33 -57 0
57 34 58 0
-57 -58 0
-34 -58 0
56 58 59 0
-56 -59 0
-58 -59 0
54 59 60 0
-54 -60 0
-59 -60 0
49 51 61 0
-49 -61 0
-51 -61 0
-60 61 62 0
60 -62 0
-61 -62 0
-56 -58 63 0
56 -63 0
58 -63 0
62 63 64 0
-62 -64 0
-63 -64 0
41 -43 65 0
-41 -65 0
43 -65 0
-64 65 66 0
64 -66 0
-65 -66 0
-45 66 67 0
45 -67 0
-66 -67 0
-29 -36 68 0
29 -68 0
36 -68 0
67 68 69 0
-67 -69 0
-68 -69 0
-23 24 70 0
23 -70 0
-24 -70 0
-69 70 71 0
69 -71 0
-70 -71 0
-26 71 72 0
26 -72 0
-71 -72 0
-37 -61 73 0
37 -73 0
61 -73 0
53 -44 74 0
-53 -74 0
44 -74 0
-74 -59 75 0
74 -75 0
59 -75 0
-73 -75 76 0
73 -76 0
75 -76 0
-76 -25 77 0
76 -77 0
25 -77 0
-22 -2 78 0
22 -78 0
2 -78 0
77 78 79 0
-77 -79 0
-78 -79 0
-20 79 80 0
20 -80 0
-79 -80 0
72 80 81 0
-72 -81 0
-80 -81 0
81 0
